
Gurobi 12.0.3 (linux64) logging started Fri Mar 27 04:36:19 2026

Set parameter LogFile to value "/home/solar-wind/WT_Solar_results_bigM100000_thread4/case24_ieee_rts_theta0.12_epsilon0.08_gurobi_seed20000_num_gen38_N_WDR300_load_scaling_factor1_EIFICA_T24_num_Solar5_num_WT10.txt"
Gurobi Optimizer version 12.0.3 build v12.0.3rc0 (linux64 - "Ubuntu 22.04.5 LTS")

CPU model: Intel(R) Xeon(R) Platinum 8378A CPU @ 3.00GHz, instruction set [SSE2|AVX|AVX2|AVX512]
Thread count: 32 physical cores, 64 logical processors, using up to 4 threads

Non-default parameters:
TimeLimit  14400
MIPGap  0.001
Seed  20000
Threads  4

Academic license 2721591 - for non-commercial use only - registered to fa___@mails.neu.edu.cn
Optimize a model with 835364 rows, 2125 columns and 75302440 nonzeros
Model fingerprint: 0x35eee430
Model has 912 quadratic objective terms
Coefficient statistics:
  Matrix range     [3e-07, 6e+01]
  Objective range  [3e+01, 6e+01]
  QObjective range [4e-03, 2e-02]
  Bounds range     [0e+00, 0e+00]
  RHS range        [5e-02, 1e+03]
Presolve removed 607619 rows and 0 columns (presolve time = 6s)...
Presolve removed 608493 rows and 0 columns
Presolve time: 7.68s
Presolved: 226871 rows, 2999 columns, 5295220 nonzeros
Presolved model has 912 quadratic objective terms
Elapsed ordering time = 6s
Elapsed ordering time = 22s
Elapsed ordering time = 25s
Ordering time: 42.90s
Elapsed ordering time = 45s
Elapsed ordering time = 45s
Elapsed ordering time = 53s
Elapsed ordering time = 55s
Elapsed ordering time = 61s
Elapsed ordering time = 69s
Elapsed ordering time = 70s
Elapsed ordering time = 78s
Elapsed ordering time = 80s
Elapsed ordering time = 86s
Ordering time: 92.72s

Barrier statistics:
 Dense cols : 1191
 AA' NZ     : 3.112e+08
 Factor NZ  : 1.191e+09 (roughly 10.0 GB of memory)
 Factor Ops : 1.593e+13 (roughly 90 seconds per iteration)
 Threads    : 4

                  Objective                Residual
Iter       Primal          Dual         Primal    Dual     Compl     Time
   0   5.85142294e+08 -3.06007639e+08  3.81e+04 9.93e+02  9.92e+05   233s
   1   5.48817927e+08 -2.82208487e+08  3.65e+04 9.51e+02  9.50e+05   233s
   2   5.41691450e+08 -3.50796439e+08  3.62e+04 9.42e+02  9.45e+05   234s
   3   5.13547315e+08 -3.90437417e+08  3.49e+04 9.08e+02  9.24e+05   234s
   4   4.57894739e+08 -3.85067902e+08  3.23e+04 8.38e+02  8.54e+05   234s
   5   4.06091544e+08 -4.53973067e+08  2.97e+04 7.69e+02  8.07e+05   235s
   6   3.67400236e+08 -4.66405575e+08  2.76e+04 7.17e+02  7.53e+05   235s
   7   3.29446467e+08 -5.26325021e+08  2.56e+04 6.62e+02  7.31e+05   235s
   8   2.92251803e+08 -5.43920626e+08  2.36e+04 6.06e+02  6.70e+05   235s
   9   2.61693126e+08 -5.59625661e+08  2.17e+04 5.58e+02  6.18e+05   236s
  10   2.35466096e+08 -5.76727076e+08  2.01e+04 5.15e+02  5.71e+05   236s
  11   2.11191157e+08 -6.06645360e+08  1.86e+04 4.73e+02  5.39e+05   236s
  12   1.82715218e+08 -6.32509286e+08  1.67e+04 4.22e+02  4.82e+05   236s
  13   1.61438780e+08 -6.48313130e+08  1.51e+04 3.82e+02  4.37e+05   236s
  14   1.43533613e+08 -6.64679717e+08  1.39e+04 3.47e+02  3.98e+05   237s
  15   1.29020277e+08 -6.84112042e+08  1.27e+04 3.18e+02  3.65e+05   237s
  16   1.13809582e+08 -7.04512751e+08  1.15e+04 2.86e+02  3.30e+05   237s
  17   1.00074779e+08 -7.24228599e+08  1.04e+04 2.57e+02  2.97e+05   237s
  18   8.98725435e+07 -7.45414038e+08  9.51e+03 2.34e+02  2.71e+05   237s
  19   7.83571244e+07 -7.70768935e+08  8.52e+03 2.08e+02  2.41e+05   238s
  20   6.82890860e+07 -7.94815034e+08  7.60e+03 1.85e+02  2.14e+05   238s
  21   5.79295346e+07 -8.22214421e+08  6.62e+03 1.60e+02  1.86e+05   238s
  22   4.78089318e+07 -8.48547139e+08  5.63e+03 1.35e+02  1.58e+05   238s
  23   4.05229672e+07 -8.67243915e+08  4.89e+03 1.16e+02  1.36e+05   238s
  24   3.35854965e+07 -8.82548229e+08  4.14e+03 9.71e+01  1.15e+05   239s
  25   2.72159564e+07 -8.94680890e+08  3.42e+03 7.97e+01  9.48e+04   239s
  26   2.17175005e+07 -8.98191213e+08  2.77e+03 6.41e+01  7.68e+04   239s
  27   1.60607291e+07 -8.88865999e+08  2.15e+03 4.77e+01  5.79e+04   239s
  28   1.30426107e+07 -8.72347129e+08  1.94e+03 3.87e+01  4.74e+04   239s
  29   1.05511693e+07 -8.47853983e+08  1.70e+03 3.12e+01  3.84e+04   240s
  30   8.44544925e+06 -8.19166607e+08  1.58e+03 2.47e+01  3.07e+04   240s
  31   6.88556133e+06 -7.83598086e+08  1.40e+03 1.99e+01  2.49e+04   240s
  32   5.62672138e+06 -7.41764620e+08  1.21e+03 1.60e+01  2.02e+04   240s
  33   4.42001772e+06 -6.89979318e+08  1.01e+03 1.23e+01  1.57e+04   240s
  34   3.52007023e+06 -6.34063071e+08  8.17e+02 9.47e+00  1.23e+04   241s
  35   2.90968120e+06 -5.83876066e+08  6.68e+02 7.59e+00  9.91e+03   241s
  36   2.26468151e+06 -5.60588108e+08  4.86e+02 5.57e+00  8.12e+03   241s
  37   1.93651827e+06 -5.32091248e+08  3.90e+02 4.50e+00  6.94e+03   241s
  38   1.47879085e+06 -4.89713823e+08  2.50e+02 2.96e+00  5.16e+03   241s
  39   1.14592323e+06 -4.19382952e+08  1.48e+02 1.76e+00  3.50e+03   242s
  40   1.01193275e+06 -3.53650805e+08  1.10e+02 1.28e+00  2.61e+03   242s
  41   8.52199477e+05 -2.83211402e+08  5.60e+01 6.46e-01  1.69e+03   242s
  42   8.11723821e+05 -2.62411643e+08  4.05e+01 4.75e-01  1.47e+03   243s
  43   7.75400795e+05 -2.11352120e+08  2.66e+01 3.17e-01  1.11e+03   244s
  44   7.61247649e+05 -1.84226281e+08  2.10e+01 2.47e-01  9.34e+02   244s
  45   7.52138920e+05 -1.63461742e+08  1.71e+01 1.99e-01  8.10e+02   245s
  46   7.46690421e+05 -1.46577750e+08  1.39e+01 1.64e-01  7.14e+02   246s
  47   7.43894259e+05 -1.42133210e+08  1.21e+01 1.41e-01  6.84e+02   247s
  48   7.41979870e+05 -1.24435165e+08  1.05e+01 1.22e-01  5.93e+02   248s
  49   7.41278070e+05 -1.18058464e+08  9.62e+00 1.11e-01  5.61e+02   250s
  50   7.40076182e+05 -9.35690359e+07  6.84e+00 7.89e-02  4.39e+02   251s
  51   7.39550881e+05 -8.05727383e+07  5.51e+00 6.34e-02  3.79e+02   253s
  52   7.38788904e+05 -7.01135498e+07  4.39e+00 5.06e-02  3.25e+02   257s
  53   7.38039576e+05 -3.53577463e+07  1.49e+00 1.74e-02  1.60e+02   295s
  54   7.36092598e+05 -8.32442188e+05  3.44e-02 7.55e-01  6.81e+00   332s
  55   6.94625290e+05  4.54516867e+05  2.72e-03 1.33e-01  1.04e+00   369s
  56   6.52856346e+05  5.69652665e+05  4.31e-04 2.16e-02  3.61e-01   410s
  57   6.42932087e+05  6.15004050e+05  3.01e-04 4.92e-03  1.21e-01   457s
  58   6.39881805e+05  6.29333775e+05  4.60e-05 7.52e-04  4.57e-02   527s
  59   6.38858980e+05  6.34197807e+05  2.87e-06 4.69e-05  2.02e-02   598s
  60   6.38587463e+05  6.35507772e+05  1.21e-06 1.97e-05  1.33e-02   665s
  61   6.38234612e+05  6.37243625e+05  1.31e-07 2.14e-06  4.29e-03   745s
  62   6.38146523e+05  6.37665957e+05  6.32e-10 4.43e-11  2.08e-03   824s
  63   6.38087288e+05  6.37954951e+05  4.44e-10 1.03e-10  5.74e-04   899s
  64   6.38071282e+05  6.38034106e+05  8.53e-14 5.00e-12  1.61e-04   973s
  65   6.38065880e+05  6.38060317e+05  3.04e-11 1.33e-11  2.41e-05  1043s
  66   6.38064933e+05  6.38064925e+05  7.70e-09 3.28e-10  3.09e-08  1111s
  67   6.38064932e+05  6.38064931e+05  1.83e-07 1.57e-08  3.11e-09  1179s

Barrier solved model in 67 iterations and 1178.55 seconds (1461.23 work units)
Optimal objective 6.38064932e+05

